sat
(model
; cardinality of BoundSet is 4
(declare-sort BoundSet 0)
; rep: @uc_BoundSet_0
; rep: @uc_BoundSet_1
; rep: @uc_BoundSet_2
; rep: @uc_BoundSet_3
(declare-sort UnboundSet 0)
(define-fun IsHispanic ((BOUND_VARIABLE_401 BoundSet)) Bool false)
(define-fun WearsRedPlaidShirt ((BOUND_VARIABLE_401 BoundSet)) Bool false)
(define-fun IsWearing ((BOUND_VARIABLE_401 BoundSet)) Bool true)
(define-fun IsSewing ((BOUND_VARIABLE_401 BoundSet)) Bool true)
(define-fun IsAnArticleOfClothing ((BOUND_VARIABLE_401 BoundSet)) Bool false)
)
